--- Job gams_0064_002_32_04_0.67_05_0.25_0.90_00_problem.txt Start 02/24/21 19:02:04 35.2.0 r33388c4 WEX-WEI x86 64bit/MS Windows
--- Applying:
    C:\Users\MariaSosnovskaya\GAMS35\gmsprmNT.txt
--- GAMS Parameters defined
    Input C:\Users\MariaSosnovskaya\Downloads\WfmGams3\problems\gams_0064_002_32_04_0.67_05_0.25_0.90_00_problem.txt
    ScrDir C:\Users\MariaSosnovskaya\Downloads\WfmGams3\225k\
    SysDir C:\Users\MariaSosnovskaya\GAMS35\
Licensee: GAMS Evaluation License                        S210124/0001AB-GEN
          Sobolev Institute of Mathematics, Discrete Optimization LaDCE1098
          C:\Users\MariaSosnovskaya\GAMS35\gamslice.txt
          Evaluation license: Not for commercial or production use
GAMS 35.2.0   Copyright (C) 1987-2021 GAMS Development. All rights reserved
--- Starting compilation
--- gams_0064_002_32_04_0.67_05_0.25_0.90_00_problem.txt(22) 3 Mb
--- . gams_0064_002_32_04_0.67_05_0.25_0.90_00.inc(6600) 3 Mb
--- gams_0064_002_32_04_0.67_05_0.25_0.90_00_problem.txt(98) 3 Mb
--- Starting execution: elapsed 0:00:00.057
--- gams_0064_002_32_04_0.67_05_0.25_0.90_00_problem.txt(6621) 4 Mb
--- Generating MIP model mymodel
--- gams_0064_002_32_04_0.67_05_0.25_0.90_00_problem.txt(6677) 9 Mb
---   16,769 rows  12,289 columns  56,353 non-zeroes
---   12,288 discrete-columns
--- Executing CPLEX (Solvelink=2): elapsed 0:00:00.174

IBM ILOG CPLEX   35.2.0 r33388c4 Released Jun 02, 2021 WEI x86 64bit/MS Window

--- GAMS/Cplex licensed for continuous and discrete problems.
--- Space for names approximately 0.61 Mb
--- Use option 'names no' to turn use of names off
--- GMO memory 6.31 Mb (peak 6.40 Mb)
--- Dictionary memory 0.00 Mb
--- Cplex 20.1.0.1 link memory 0.43 Mb (peak 1.99 Mb)
--- Starting Cplex

Version identifier: 20.1.0.1 | 2021-04-07 | 3a818710c
CPXPARAM_Advance                                 0
CPXPARAM_Threads                                 1
CPXPARAM_MIP_Display                             4
CPXPARAM_TimeLimit                               3600
CPXPARAM_MIP_Tolerances_AbsMIPGap                0
Generic callback                                 0x50
Tried aggregator 2 times.
MIP Presolve eliminated 8321 rows and 866 columns.
Aggregator did 192 substitutions.
Reduced MIP has 8256 rows, 11232 columns, and 37767 nonzeros.
Reduced MIP has 11232 binaries, 0 generals, 0 SOSs, and 0 indicators.
Presolve time = 0.11 sec. (42.32 ticks)
Probing fixed 904 vars, tightened 0 bounds.
Probing changed sense of 50 constraints.
Probing time = 0.09 sec. (29.72 ticks)
Tried aggregator 16 times.
MIP Presolve eliminated 400 rows and 964 columns.
Aggregator did 400 substitutions.
Reduced MIP has 7456 rows, 9868 columns, and 33509 nonzeros.
Reduced MIP has 9868 binaries, 0 generals, 0 SOSs, and 0 indicators.
Presolve time = 0.62 sec. (317.90 ticks)
Probing time = 0.00 sec. (4.43 ticks)
Tried aggregator 1 time.
Detecting symmetries...
Reduced MIP has 7456 rows, 9868 columns, and 33509 nonzeros.
Reduced MIP has 9868 binaries, 0 generals, 0 SOSs, and 0 indicators.
Presolve time = 0.06 sec. (29.81 ticks)
Probing time = 0.02 sec. (4.43 ticks)
Clique table members: 24581.
MIP emphasis: balance optimality and feasibility.
MIP search method: dynamic search.
Parallel mode: none, using 1 thread.
Tried aggregator 1 time.
No LP presolve or aggregator reductions.
Presolve time = 0.00 sec. (4.35 ticks)
Initializing dual steep norms . . .

Iteration log . . .
Iteration:     1   Dual objective     =          8675.000000
Perturbation started.
Iteration:   101   Dual objective     =          8675.000000
Iteration:   501   Dual objective     =          8674.999817
Iteration:   846   Dual objective     =          8674.999717
Iteration:  1202   Dual objective     =          8674.999595
Iteration:  1575   Dual objective     =          8674.999473
Iteration:  1942   Dual objective     =          8674.999356
Iteration:  2302   Dual objective     =          8674.999252
Iteration:  2644   Dual objective     =          8674.999197
Iteration:  2991   Dual objective     =          8674.999153
Iteration:  3331   Dual objective     =          8674.999125
Iteration:  3641   Dual objective     =          8674.999100
Iteration:  3952   Dual objective     =          8674.999078
Iteration:  4255   Dual objective     =          8674.999061
Iteration:  4536   Dual objective     =          8674.999048
Iteration:  4775   Dual objective     =          8674.999031
Iteration:  5026   Dual objective     =          8674.999021
Iteration:  5232   Dual objective     =          8674.999013
Iteration:  5456   Dual objective     =          8674.999000
Iteration:  5661   Dual objective     =          8674.998991
Iteration:  5832   Dual objective     =          8674.998984
Iteration:  6022   Dual objective     =          8674.998978
Iteration:  6137   Dual objective     =          8674.998972
Iteration:  6285   Dual objective     =          8674.998964
Iteration:  6424   Dual objective     =          8674.998957
Iteration:  6561   Dual objective     =          8674.998954
Iteration:  6697   Dual objective     =          8674.998952
Iteration:  6820   Dual objective     =          8674.998950
Iteration:  6948   Dual objective     =          8674.998948
Iteration:  7078   Dual objective     =          8674.998947
Iteration:  7204   Dual objective     =          8674.998946
Iteration:  7332   Dual objective     =          8674.998945
Iteration:  7457   Dual objective     =          8674.998944
Removing perturbation.
Root relaxation solution time = 0.79 sec. (450.13 ticks)

        Nodes                                         Cuts/
   Node  Left     Objective  IInf  Best Integer    Best Bound    ItCnt     Gap

      0     0     8675.0000  1322                   8675.0000     7553         
      0     0     8675.0000   574                    Cuts: 14     8020         
      0     0     8675.0000   668                    Cuts: 74     8958         
      0     0     8675.0000   348                 ZeroHalf: 9     9055         
      0     0     8675.0000   589                    Cuts: 41     9932         
      0     2     8675.0000   299                   8675.0000     9932         
Elapsed time = 7.78 sec. (4836.33 ticks, tree = 0.01 MB, solutions = 0)
      5     3     8673.0000   634                   8675.0000    12834         
     10     6    infeasible                         8675.0000    15991         
     18    14     8675.0000   634                   8675.0000    20014         
     25    21     8675.0000   696                   8675.0000    23615         
     33    29     8675.0000   197                   8675.0000    25918         
     45    41     8675.0000   620                   8675.0000    31428         
     54    50     8675.0000   199                   8675.0000    33214         
     58    54     8675.0000   232                   8675.0000    35906         
     60    56     8675.0000   228                   8675.0000    37647         
*   114     1      integral     0     8675.0000     8675.0000    46139    0.00%
Found incumbent of value 8675.000000 after 13.48 sec. (8462.98 ticks)

Zero-half cuts applied:  37
Lift and project cuts applied:  3
Gomory fractional cuts applied:  10

Root node processing (before b&c):
  Real time             =    7.75 sec. (4822.03 ticks)
Sequential b&c:
  Real time             =    5.72 sec. (3644.78 ticks)
                          ------------
Total (root+branch&cut) =   13.48 sec. (8466.81 ticks)

--- MIP status (101): integer optimal solution.
--- Cplex Time: 13.48sec (det. 8466.84 ticks)

--- Fixing integer variables and solving final LP...

Version identifier: 20.1.0.1 | 2021-04-07 | 3a818710c
CPXPARAM_Advance                                 2
CPXPARAM_Threads                                 1
CPXPARAM_MIP_Display                             4
CPXPARAM_TimeLimit                               3600
CPXPARAM_MIP_Tolerances_AbsMIPGap                0
Tried aggregator 1 time.
LP Presolve eliminated 16769 rows and 12290 columns.
All rows and columns eliminated.
Presolve time = 0.02 sec. (7.10 ticks)

--- Fixed MIP status (1): optimal.
--- Cplex Time: 0.02sec (det. 12.43 ticks)


Proven optimal solution
MIP Solution:         8675.000000    (46139 iterations, 115 nodes)
Final Solve:          8675.000000    (0 iterations)

Best possible:        8675.000000
Absolute gap:            0.000000
Relative gap:            0.000000

--- Reading solution for model mymodel
--- gams_0064_002_32_04_0.67_05_0.25_0.90_00_problem.txt(6677) 9 Mb  13 secs
--- Executing after solve: elapsed 0:00:13.849
--- gams_0064_002_32_04_0.67_05_0.25_0.90_00_problem.txt(6678) 9 Mb--- gams_0064_002_32_04_0.67_05_0.25_0.90_00_problem.txt(6698) 9 Mb
--- Putfile results C:\Users\MariaSosnovskaya\Downloads\WfmGams3\problems\gams_0064_002_32_04_0.67_05_0.25_0.90_00_results.txt
*** Status: Normal completion
--- Job gams_0064_002_32_04_0.67_05_0.25_0.90_00_problem.txt Stop 02/24/21 19:02:18 elapsed 0:00:13.869
